 # Version information for this restart file 
 # current date 2020-08-14 07:23:53.868
 # current working dir /gpfs/scratch/brendan/w_Mohammad/solid_state_tddft/cp2k_md/cspbi3/thermalization
 # Program compiled at                              Thu Aug 13 10:56:01 EDT 2020
 # Program compiled on                           srv-p22-12.cbls.ccr.buffalo.edu
 # Program compiled for                                                    local
 # Source code revision number                                       git:e635599
 &GLOBAL
   PRINT_LEVEL  MEDIUM
   PROJECT_NAME cspbi3_md
   RUN_TYPE  MD
 &END GLOBAL
 &MOTION
   &MD
     ENSEMBLE  NVT
     STEPS  20000
     TIMESTEP  9.9999999999999989E-01
     STEP_START_VAL  0
     TIME_START_VAL  0
     ECONS_START_VAL  -466.7047037253 
     TEMPERATURE     3.0000000000000000E+02
     COMVEL_TOL      0.0000000000000000E+00
     &THERMOSTAT
       TYPE  CSVR
       REGION  GLOBAL
       &CSVR
         TIMECON 200
       &END CSVR
     &END THERMOSTAT
     &AVERAGES  T
       &RESTART_AVERAGES
         ITIMES_START  1
         AVECPU     1.2238324913871985E+01
         AVEHUGONIOT     0.0000000000000000E+00
         AVETEMP_BARO     0.0000000000000000E+00
         AVEPOT    -4.6671402601261093E+02
         AVEKIN     5.5035088327457751E-02
         AVETEMP     2.9707154938308298E+02
         AVEKIN_QM     0.0000000000000000E+00
         AVETEMP_QM     0.0000000000000000E+00
         AVEVOL     1.4246330315211178E+04
         AVECELL_A     2.4241956628255227E+01
         AVECELL_B     2.4241956628255227E+01
         AVECELL_C     2.4241956628255227E+01
         AVEALPHA     9.0000000000000000E+01
         AVEBETA     9.0000000000000000E+01
         AVEGAMMA     9.0000000000000000E+01
         AVE_ECONS    -2.6053345059771399E-03
         AVE_PRESS     0.0000000000000000E+00
         AVE_PXX     0.0000000000000000E+00
       &END RESTART_AVERAGES
     &END AVERAGES
   &END MD
   &PRINT
     &TRAJECTORY  SILENT
       &EACH
         MD  1
       &END EACH
     &END TRAJECTORY
     &VELOCITIES  ON
     &END VELOCITIES
     &FORCES  ON
     &END FORCES
     &RESTART  SILENT
       BACKUP_COPIES  1
       &EACH
         MD  1
       &END EACH
     &END RESTART
   &END PRINT
 &END MOTION
 &FORCE_EVAL
   METHOD  QS
   &DFT
     BASIS_SET_FILE_NAME BASIS_MOLOPT
     POTENTIAL_FILE_NAME POTENTIAL
     &SCF
       MAX_ITER_LUMO  1000
       MAX_SCF  300
       EPS_SCF     9.9999999999999995E-07
       SCF_GUESS  RESTART
       ADDED_MOS  30
       &DIAGONALIZATION  T
         ALGORITHM  STANDARD
       &END DIAGONALIZATION
       &MIXING  T
         METHOD  BROYDEN_MIXING
         ALPHA     4.0000000000000002E-01
         BETA     4.0000000000000002E-01
         NBUFFER  8
       &END MIXING
     &END SCF
     &QS
       EPS_DEFAULT     9.9999999999999998E-13
     &END QS
     &MGRID
       CUTOFF     3.0000000000000000E+02
       REL_CUTOFF     6.0000000000000000E+01
     &END MGRID
     &XC
       DENSITY_CUTOFF     1.0000000000000000E-10
       GRADIENT_CUTOFF     1.0000000000000000E-10
       TAU_CUTOFF     1.0000000000000000E-10
       &XC_FUNCTIONAL  NO_SHORTCUT
         &PBE  T
         &END PBE
       &END XC_FUNCTIONAL
       &VDW_POTENTIAL
         POTENTIAL_TYPE  PAIR_POTENTIAL
         &PAIR_POTENTIAL
           R_CUTOFF     1.6000000000000000E+01
           TYPE  DFTD3
           PARAMETER_FILE_NAME dftd3.dat
           REFERENCE_FUNCTIONAL PBE
         &END PAIR_POTENTIAL
       &END VDW_POTENTIAL
     &END XC
     &KPOINTS
       SCHEME MONKHORST-PACK 4 4 4
       SYMMETRY  F
     &END KPOINTS
   &END DFT
   &SUBSYS
     &CELL
       A     1.2828290939300002E+01    0.0000000000000000E+00    0.0000000000000000E+00
       B     0.0000000000000000E+00    1.2828290939300002E+01    0.0000000000000000E+00
       C     0.0000000000000000E+00    0.0000000000000000E+00    1.2828290939300002E+01
       PERIODIC  XYZ
       MULTIPLE_UNIT_CELL  1 1 1
     &END CELL
     &COORD
 Cs         3.8121939438        3.2956536536        2.9942586298
 Cs         2.5541975662        2.6616071333        9.7061832777
 Cs         3.0536675445        9.9038860697        3.0379737415
 Cs         3.4476950030        9.3168751601        9.8333028041
 Cs         9.7992575590        3.6837989439        3.1666827367
 Cs         9.5396528200        3.3358992617        9.8285036789
 Cs         9.2278007326        9.8863850521        3.1207072308
 Cs         9.5925631320        9.0806002891        9.8196074276
 Pb         0.1158973061       -0.0611935693        0.1010866767
 Pb        -0.1286157230        0.0684757861        6.4978783720
 Pb        -0.2585392140        6.4694351180        0.0926614134
 Pb         0.1756292327        6.4601015698        6.5712288139
 Pb         6.3838173681        0.0588541440       -0.1632285771
 Pb         6.6942618034        0.2038688601        6.3947803380
 Pb         6.1825978651        6.4659445324       -0.3233505315
 Pb         6.4928017509        6.5679282679        6.1354653138
  I         0.2349136533       -0.5305033115        3.4036740597
  I         0.3719077921       -0.2793027375        9.6440012209
  I         0.2113401977        6.5735623428        3.0841347746
  I        -0.7221784814        6.1464638798        9.5707009716
  I         6.8002758557        0.2597612556        3.1354965182
  I         5.8288380711        0.4373699321        9.6472009121
  I         5.8950356431        6.7119990033        3.1483965169
  I         6.5185629023        6.3407097708        9.4230550971
  I        -0.2319927634        3.3350728269        0.7456519865
  I        -0.9349189328        2.9941991658        6.5313704906
  I         0.5647084648        9.7103854104       -0.1721765458
  I         0.6699552679        9.5817311191        6.8887271813
  I         6.9663113575        3.3848646058        0.4174932259
  I         7.6400878119        2.9912800022        6.3740113892
  I         6.0744517930        9.6832154679        0.2723861823
  I         6.0020302132        9.6012494168        6.3144164509
  I         3.1852617533        0.7568719355        0.3010127694
  I         3.5132244468        0.6243060816        6.3911037542
  I         2.9369372051        6.1214695939       -0.8745345913
  I         2.8963738174        5.3811524711        6.5722984097
  I         9.6455644768       -0.2295354929       -0.7295615836
  I         9.6856193714       -1.3020704031        6.6950251486
  I         9.4892498978        6.5859954620        0.4498087405
  I         9.6823595260        6.9597306884        5.7609486973
     &END COORD
     &VELOCITY
         -0.0000421626        0.0000815422       -0.0000235659
          0.0000234714       -0.0000499052        0.0000291961
          0.0000738821       -0.0000546394        0.0000043104
         -0.0000158974       -0.0000050674       -0.0000945677
         -0.0000145288       -0.0000105366        0.0000327980
          0.0000177919       -0.0000238413        0.0000635477
         -0.0000307717       -0.0001522084        0.0000630746
          0.0000361690       -0.0000127460        0.0000675292
          0.0000279277        0.0000113705        0.0000446626
         -0.0000425090        0.0000821540       -0.0000329488
         -0.0000053298        0.0000185375       -0.0000250209
         -0.0000101651       -0.0000224828        0.0000164932
          0.0000338792       -0.0000373228       -0.0000747784
          0.0000128641       -0.0000333857       -0.0000680293
         -0.0000769715        0.0000017005       -0.0000266519
         -0.0000195050        0.0000740200        0.0000397041
           0.0001495054        0.0000348925       -0.0000963632
          -0.0000224237       -0.0000101738        0.0000278552
          -0.0000190385        0.0000495682        0.0000996295
          -0.0000095107        0.0000065276        0.0001157852
           0.0001003179        0.0000476526        0.0002356045
          0.0000355490       -0.0000979043        0.0000356117
          -0.0000521423       -0.0000190939        0.0001201785
          -0.0001066770       -0.0000182863       -0.0000369516
          -0.0000638521        0.0000117968       -0.0000177482
          -0.0000404442       -0.0001449350        0.0000248483
          -0.0000062958       -0.0000368983        0.0000087881
          -0.0000160719        0.0000962087       -0.0001945133
           0.0000781591        0.0000821333       -0.0000090952
          -0.0000036293        0.0000035588        0.0000173716
          -0.0000686316        0.0000255013       -0.0001386144
           0.0000253415       -0.0000136058       -0.0000353799
           0.0000206868        0.0000543671       -0.0000889664
           0.0000816098       -0.0000196949       -0.0001197477
           0.0000840288        0.0000038829        0.0000785413
           0.0000112821        0.0000888240        0.0000169155
          -0.0000492161       -0.0000392460        0.0000306675
          -0.0000332349       -0.0000416628        0.0000151252
           0.0000218832        0.0000283962       -0.0000244328
          -0.0000371101       -0.0000080949       -0.0000075091
     &END VELOCITY
     &KIND Cs
       BASIS_SET ORB DZVP-MOLOPT-SR-GTH
       ELEMENT Cs
       POTENTIAL GTH-PBE-q9
       &POTENTIAL
 3 6
  0.5400000000000000E+00 2  0.3331331676000000E+02 -0.2921216700000000E+01
 4
  0.4618956800000000E+00 2 -0.3322927000000000E+01  0.2455653380000000E+01
 -0.3170234880000000E+01
  0.3663586000000000E+00 2 -0.4950764050000000E+01  0.8403897700000000E+00
 -0.9943625900000000E+00
  0.7615019300000000E+00 1  0.1984072300000000E+00
  0.5970150300000000E+00 1 -0.1550566930000000E+01
         # Potential name:  GTH-PBE-Q9  for symbol:  CS
         # Potential read from the potential filename: POTENTIAL
       &END POTENTIAL
     &END KIND
     &KIND Pb
       BASIS_SET ORB DZVP-MOLOPT-SR-GTH
       ELEMENT Pb
       POTENTIAL GTH-PBE-q4
       &POTENTIAL
 2 2
  0.6175000000000000E+00 1  0.4672384280000000E+01
 3
  0.6223588100000000E+00 3  0.8799176800000000E+00  0.2081147840000000E+01 -0.1431257100000000E+01
 -0.5014690160000000E+01  0.3695489940000000E+01
 -0.2933204210000000E+01
  0.8120020200000000E+00 2  0.1534567900000000E+00  0.4788978500000000E+00
 -0.5666395800000000E+00
  0.1025015250000000E+01 1  0.3017020600000000E+00
         # Potential name:  GTH-PBE-Q4  for symbol:  PB
         # Potential read from the potential filename: POTENTIAL
       &END POTENTIAL
     &END KIND
     &KIND I
       BASIS_SET ORB DZVP-MOLOPT-SR-GTH
       ELEMENT I
       POTENTIAL GTH-PBE-q7
       &POTENTIAL
 2 5
  0.5600000000000001E+00 1  0.8207101570000001E+01
 3
  0.5319281300000001E+00 3  0.2308145810000000E+01  0.1003909330000000E+01 -0.9591560600000000E+00
 -0.2856108820000000E+01  0.2476530300000000E+01
 -0.1965684980000000E+01
  0.5891824400000000E+00 2  0.9064821900000000E+00  0.4250706000000000E+00
 -0.5029503200000000E+00
  0.7397214700000000E+00 1  0.4791945800000000E+00
         # Potential name:  GTH-PBE-Q7  for symbol:  I
         # Potential read from the potential filename: POTENTIAL
       &END POTENTIAL
     &END KIND
     &TOPOLOGY
       !COORD_FILE_NAME coord.xyz
       !COORD_FILE_FORMAT  XYZ
       NUMBER_OF_ATOMS  40
       MULTIPLE_UNIT_CELL  1 1 1
     &END TOPOLOGY
   &END SUBSYS
 &END FORCE_EVAL
