&GLOBAL
  PROJECT cspbi3_tetragonal
  RUN_TYPE ENERGY
  PRINT_LEVEL MEDIUM
&END GLOBAL
&FORCE_EVAL
  METHOD Quickstep

  &PROPERTIES
   &TDDFPT
      NSTATES     75            # number of excited states
      MAX_ITER    300           # maximum number of Davidson iterations
      CONVERGENCE [eV] 1.0e-6   # convergence on maximum energy change between iterations
      &MGRID
         CUTOFF 300 # separate cutoff for TDDFPT calc
      &END
      RESTART     .TRUE.
      WFN_RESTART_FILE_NAME RESTART.tdwfn
   &END TDDFPT
  &END PROPERTIES

  !&PRINT
  !  &FORCES
  !  &END
  !  &TOTAL_NUMBERS  ON
  !  &END TOTAL_NUMBERS
  !&END PRINT

  &DFT

    &PRINT
      &PDOS SILENT
        COMPONENTS T
        NLUMO  -1
      &END PDOS
      &MO_CUBES
      NLUMO -1
        NHOMO 40
        WRITE_CUBE .TRUE.
        STRIDE 1 1 1
      &END
    &END PRINT

    BASIS_SET_FILE_NAME /panasas/scratch/grp-alexeyak/brendan/active_projects/Project_CsPbI3_MB_vs_SP/tetragonal/step2/BASIS_MOLOPT
    POTENTIAL_FILE_NAME /panasas/scratch/grp-alexeyak/brendan/active_projects/Project_CsPbI3_MB_vs_SP/tetragonal/step2/POTENTIAL
    WFN_RESTART_FILE_NAME RESTART.wfn

    &MGRID
      CUTOFF 300
      REL_CUTOFF 60
    &END MGRID
    &QS
      EPS_DEFAULT 1.0E-16
    &END QS
    &SCF
      SCF_GUESS RESTART
      EPS_SCF 1.0E-8
      MAX_SCF 300

      !&OT
      !  PRECONDITIONER FULL_ALL
      !  MINIMIZER DIIS
      !&END OT

      ADDED_MOS 40
      !CHOLESKY INVERSE
      !&SMEAR ON
      !  METHOD FERMI_DIRAC
      !  ELECTRONIC_TEMPERATURE [K] 300
      !&END SMEAR
      &DIAGONALIZATION
        ALGORITHM STANDARD
      &END DIAGONALIZATION
      &MIXING
        METHOD BROYDEN_MIXING
        ALPHA 0.5
        BETA  0.5
        NBROYDEN 8
      &END MIXING

    &END SCF
    &XC
      &XC_FUNCTIONAL PBE
      &END XC_FUNCTIONAL
    &END XC
  &END DFT
  &SUBSYS

    &KIND Cs
      ELEMENT Cs
      BASIS_SET ORB DZVP-MOLOPT-SR-GTH
      POTENTIAL GTH-PBE-q9
    &END KIND 
    &KIND Pb
      ELEMENT Pb
      BASIS_SET ORB DZVP-MOLOPT-SR-GTH
      POTENTIAL GTH-PBE-q4
    &END KIND 
    &KIND I
      ELEMENT I 
      BASIS_SET ORB DZVP-MOLOPT-SR-GTH
      POTENTIAL GTH-PBE-q7
    &END KIND

    &CELL
      PERIODIC XYZ
      A 17.2395801544  0.0000000000    0.0000000000
      B  0.0000000000  17.7035198212   0.0000000000
      C  0.0000000000  0.0000000000   25.0025596619
    &END CELL
    &TOPOLOGY
      COORD_FILE_NAME coord.xyz
      COORD_FILE_FORMAT XYZ
    &END
  &END SUBSYS
&END FORCE_EVAL
