 # Version information for this restart file 
 # current date 2020-09-25 05:58:49.117
 # current working dir /panfs/panfs.cbls.ccr.buffalo.edu/scratch/grp-alexeyak/brendan/cp2k_md_repository/cspbi3_tetragonal/md_2x2x2
 # Program compiled at                              Thu Sep 17 16:12:40 EDT 2020
 # Program compiled on                           srv-p22-12.cbls.ccr.buffalo.edu
 # Program compiled for                                                    local
 # Source code revision number                                       git:e635599
 &GLOBAL
   PRINT_LEVEL  MEDIUM
   PROJECT_NAME cspbi3_tetragonal_2x2x2
   RUN_TYPE  MD
 &END GLOBAL
 &MOTION
   &MD
     ENSEMBLE  NVT
     STEPS  3000
     TIMESTEP     9.9999999999999989E-01
     STEP_START_VAL  0
     TIME_START_VAL     2.9999999999998336E+03
     ECONS_START_VAL    -1.8668847045117486E+03
     TEMPERATURE     3.0000000000000000E+02
     COMVEL_TOL     0.0000000000000000E+00
     &THERMOSTAT
       TYPE  CSVR
       REGION  GLOBAL
       &CSVR
         TIMECON 200
       &END CSVR
     &END THERMOSTAT
     &AVERAGES  T
       &RESTART_AVERAGES
         ITIMES_START  1
         AVECPU     7.0789582878860969E+01
         AVEHUGONIOT     0.0000000000000000E+00
         AVETEMP_BARO     0.0000000000000000E+00
         AVEPOT    -1.8668893365875865E+03
         AVEKIN     2.2349090603987293E-01
         AVETEMP     2.9590256672641726E+02
         AVEKIN_QM     0.0000000000000000E+00
         AVETEMP_QM     0.0000000000000000E+00
         AVEVOL     5.1495275461115045E+04
         AVECELL_A     3.2578085137746385E+01
         AVECELL_B     3.3454804050180591E+01
         AVECELL_C     4.7247990382124264E+01
         AVEALPHA     9.0000000000000000E+01
         AVEBETA     9.0000000000000000E+01
         AVEGAMMA     9.0000000000000000E+01
         AVE_ECONS     1.4796319362209102E-02
         AVE_PRESS     0.0000000000000000E+00
         AVE_PXX     0.0000000000000000E+00
       &END RESTART_AVERAGES
     &END AVERAGES
   &END MD
   &PRINT
     &TRAJECTORY  SILENT
       &EACH
         MD  1
       &END EACH
     &END TRAJECTORY
     &VELOCITIES  ON
     &END VELOCITIES
     &FORCES  ON
     &END FORCES
     &RESTART  SILENT
       BACKUP_COPIES  1
       &EACH
         MD  1
       &END EACH
     &END RESTART
   &END PRINT
 &END MOTION
 &FORCE_EVAL
   METHOD  QS
   &DFT
     BASIS_SET_FILE_NAME BASIS_MOLOPT
     POTENTIAL_FILE_NAME POTENTIAL
     &SCF
       MAX_ITER_LUMO  1000
       MAX_SCF  300
       EPS_SCF     9.9999999999999995E-07
       SCF_GUESS  RESTART
       ADDED_MOS  30
       &DIAGONALIZATION  T
         ALGORITHM  STANDARD
       &END DIAGONALIZATION
       &MIXING  T
         METHOD  BROYDEN_MIXING
         ALPHA     5.0000000000000000E-01
         BETA     5.0000000000000000E-01
         NBUFFER  8
       &END MIXING
     &END SCF
     &QS
       EPS_DEFAULT     9.9999999999999998E-17
     &END QS
     &MGRID
       CUTOFF     2.0000000000000000E+02
       REL_CUTOFF     6.0000000000000000E+01
     &END MGRID
     &XC
       DENSITY_CUTOFF     1.0000000000000000E-10
       GRADIENT_CUTOFF     1.0000000000000000E-10
       TAU_CUTOFF     1.0000000000000000E-10
       &XC_FUNCTIONAL  NO_SHORTCUT
         &PBE  T
         &END PBE
       &END XC_FUNCTIONAL
       &VDW_POTENTIAL
         POTENTIAL_TYPE  PAIR_POTENTIAL
         &PAIR_POTENTIAL
           R_CUTOFF     1.6000000000000000E+01
           TYPE  DFTD3
           PARAMETER_FILE_NAME dftd3.dat
           REFERENCE_FUNCTIONAL PBE
         &END PAIR_POTENTIAL
       &END VDW_POTENTIAL
     &END XC
     &KPOINTS
       SCHEME MONKHORST-PACK 2 2 2
       SYMMETRY  F
     &END KPOINTS
     &PRINT
       &MULLIKEN  OFF
       &END MULLIKEN
       &HIRSHFELD  OFF
       &END HIRSHFELD
     &END PRINT
   &END DFT
   &SUBSYS
     &CELL
       A     1.7239580154399999E+01    0.0000000000000000E+00    0.0000000000000000E+00
       B     0.0000000000000000E+00    1.7703519821200000E+01    0.0000000000000000E+00
       C     0.0000000000000000E+00    0.0000000000000000E+00    2.5002559661900005E+01
       PERIODIC  XYZ
       MULTIPLE_UNIT_CELL  1 1 1
     &END CELL
     &COORD
Pb   -2.5980634119059542E-01   -1.9760694512810439E-01    6.1916351891795385E+00
Pb    1.2024796100189536E-01    1.5245234927671190E-02    1.8916055897369112E+01
Pb    4.5526994464250885E+00    4.3416190889732187E+00    1.8711061217135335E+01
Pb    4.0735451095564041E+00    4.4343881928330973E+00    6.1180022788004313E+00
Pb   -4.1516045521020867E-01   -1.8260880075759797E-01    1.2417532208331393E+01
Pb    2.1612799070779404E-01    2.9827097891359727E-01   -3.6886108676817846E-02
Pb    4.6350930037049158E+00    4.6336843454211163E+00    4.6815633795601296E-02
Pb    3.9892457541032740E+00    4.4126604784723700E+00    1.2382969195016445E+01
Pb   -3.4363557052544701E-02    8.5668363811760901E+00    6.1925663743373072E+00
Pb    1.8103645026308843E-01    8.7379639791330934E+00    1.8833221372998739E+01
Pb    4.3224045231631738E+00    1.3241323988696172E+01    1.8500822509163548E+01
Pb    4.3808473356461679E+00    1.3349723234054842E+01    6.2205388026528494E+00
Pb   -1.0080396741664184E-01    8.7882049143583387E+00    1.2453279161939854E+01
Pb    3.6275847701280689E-01    8.9825819861505938E+00    3.0846056936533295E-01
Pb    4.3508624790273460E+00    1.3653133723260989E+01   -4.0428277131257954E-02
Pb    4.3911538526493459E+00    1.3543874344950627E+01    1.2387462220648150E+01
Pb    8.6280444113482240E+00   -1.0643466667867812E-01    6.5213056865390575E+00
Pb    8.5881808582916115E+00   -9.8735935423721853E-03    1.8815878749476013E+01
Pb    1.2797019887479884E+01    4.2487135839708658E+00    1.8791416146263977E+01
Pb    1.2652243918702373E+01    4.3117534056821514E+00    6.4216802645970006E+00
Pb    8.5264115767453017E+00   -6.9968576810814694E-03    1.2473824607558313E+01
Pb    8.9197285557272039E+00    1.0313191834225448E-01   -8.4826900654772261E-02
Pb    1.3086926105990241E+01    4.3736341874343925E+00   -9.1772198366647975E-02
Pb    1.2539664226401820E+01    4.3591624840462702E+00    1.2352094047643799E+01
Pb    8.4746943476622754E+00    9.0092286371558412E+00    6.1933665565677130E+00
Pb    8.7904285938049469E+00    8.6861115052692455E+00    1.8573289326466885E+01
Pb    1.3087542184910548E+01    1.3257171805022827E+01    1.8906040729346774E+01
Pb    1.2630037971935074E+01    1.3015496997483130E+01    6.0492971982842629E+00
Pb    8.6995794536065798E+00    8.7743977696200730E+00    1.2485266073802046E+01
Pb    8.8712840143143712E+00    9.0882581493607884E+00   -1.2649148866510704E-01
Pb    1.3386483850988236E+01    1.3381068597199050E+01    1.7212789508052436E-02
Pb    1.2785705169259632E+01    1.3110853249031717E+01    1.2662809871587680E+01
Cs    1.7043791485429338E+01    3.7660058136549952E+00    3.1330484642491760E+00
Cs    3.2948002750419847E-01    1.3397661674269225E+01    2.1664140495513116E+01
Cs    4.2868560437767833E+00    7.3732784968792875E-02    2.1679667707534882E+01
Cs    4.4384752155573644E+00    9.1886801115010339E+00    2.9685682942623912E+00
Cs   -3.6611532743266888E-02    1.3406273729312563E+01    9.3362229732722266E+00
Cs    3.9057060721824244E+00    5.3332848357007101E-01    9.2656622212235060E+00
Cs    1.7194449285008986E+01    3.8903415309488509E+00    1.5792404245209738E+01
Cs    4.1157962593342488E+00    8.4604192492367236E+00    1.5286564820856693E+01
Cs    1.7377099984296020E+01    1.3328896528398428E+01    3.2093766818758480E+00
Cs    8.5898408094896211E-02    5.2131893404544023E+00    2.1526589266801782E+01
Cs    4.1914467157570403E+00    9.6367080231017379E+00    2.1782286774897369E+01
Cs    4.2061537776443876E+00    1.7599052815853316E+01    3.2980106451249807E+00
Cs    2.6675081013700747E-01    4.7614247586721925E+00    9.4645056826938845E+00
Cs    4.2872049513644193E+00    9.4638978885236309E+00    9.6272191604505331E+00
Cs    1.6962162569640039E+01    1.2820012932874782E+01    1.5785233598740948E+01
Cs    3.5019454180001888E+00    1.8238379926650136E+01    1.5404280791037099E+01
Cs    8.4914507179053142E+00    3.9950699953077455E+00    3.4120918393603916E+00
Cs    8.9251763236518986E+00    1.3717504819716702E+01    2.1703356501418533E+01
Cs    1.2577882610900970E+01    4.8345752522215785E-01    2.1904786042151098E+01
Cs    1.3040265051026360E+01    7.9597456019503516E+00    3.2865810243353244E+00
Cs    8.7298928357641330E+00    1.3561065339732860E+01    9.5621605032448116E+00
Cs    1.2977212781590492E+01    2.0964633153845269E-01    9.5006964040168853E+00
Cs    8.4144836333663058E+00    3.9704936000183615E+00    1.5548600814396121E+01
Cs    1.2776463846749138E+01    8.3048341305637141E+00    1.5505295861190984E+01
Cs    8.6927734469338809E+00    1.3334134974625586E+01    2.6460471591912826E+00
Cs    8.5793836370054848E+00    4.8118022393895750E+00    2.2150279717728282E+01
Cs    1.3471975654677289E+01    8.9283857390691281E+00    2.2164434784676608E+01
Cs    1.2994960561795107E+01    1.7515838977011306E+01    3.4601798903068599E+00
Cs    8.1080650601641384E+00    4.7795424337870713E+00    9.3680856658305558E+00
Cs    1.2995763629296832E+01    9.1551197026061217E+00    9.1907775584806384E+00
Cs    8.5068245070968409E+00    1.2740671785164816E+01    1.5965005310314456E+01
Cs    1.3105844505774332E+01    1.7317842852501251E+01    1.5650278464682273E+01
I    1.5567596384886033E+00    2.6134976101392131E+00    6.5200841552855744E+00
I    1.5475963631873855E+01    1.5219004616556685E+01    1.8458879871724687E+01
I    6.1106307126653556E+00    1.9263153362513106E+00    1.7905793271585683E+01
I    2.7296222266805117E+00    7.2833722599140005E+00    6.8744358043534382E+00
I    1.5542165593626132E+01    1.4709320690868569E+01    1.2641832863747799E+01
I    1.7698149048403857E+00    2.9324480644030846E+00    2.4695318078675012E+01
I    3.2060659770103852E+00    7.3907443759357347E+00    2.4504373001445853E+01
I    5.8297876726367610E+00    1.6489191114108452E+00    1.2942500442004329E+01
I    1.7379306335278013E+00    2.7556947630205313E+00    1.8992729306403117E+01
I    1.5260033021274134E+01    1.4742992451966764E+01    6.2176777250745019E+00
I    6.2748928593941935E+00    2.0965194411111749E+00    6.1353166425603582E+00
I    2.8576421889633128E+00    7.0681259844827418E+00    1.9231861435291115E+01
I    1.6116503778636332E+01    1.4950050181061588E+01    7.0260148127322203E-02
I    1.4064638650670462E+00    2.5049194360751539E+00    1.2253532419297029E+01
I    2.5056030112931840E+00    6.9574785832694914E+00    1.1761948836476149E+01
I    6.2421069693650288E+00    1.6823846784892631E+00    4.8730526294969245E-01
I    1.7559638982944608E+00    1.1493112240913913E+01    6.3099712049379830E+00
I    1.5546498513460934E+01    6.0791187020788371E+00    1.8296474565341395E+01
I    6.2596884089271176E+00    1.0654103273542633E+01    1.8123174664542539E+01
I    2.5464883399659346E+00    1.5950011680239552E+01    6.7085235108891483E+00
I    1.5225016867712485E+01    6.2914083966441634E+00    1.2760524949782663E+01
I    2.0336117505397815E+00    1.1736878784636119E+01    2.4940795400086689E+01
I    3.0897554556169937E+00    1.6365737797564368E+01    2.4674355493844587E+01
I    6.0053217438626882E+00    1.0814548021263661E+01    1.2982513297382768E+01
I    1.7389924891453667E+00    1.1541359765962222E+01    1.8821938725772139E+01
I    1.5652028863718057E+01    5.9244713231816917E+00    6.1239697954864392E+00
I    5.7373617201759091E+00    1.0647613399314205E+01    5.9886884701169594E+00
I    2.2827795562687765E+00    1.5720573565568220E+01    1.9271061836684041E+01
I    1.5513980813858469E+01    6.5388794796428300E+00    1.9872283952868672E-03
I    1.8100816725007771E+00    1.1348279646484817E+01    1.2353967661027124E+01
I    2.3763148810288994E+00    1.5834169174840714E+01    1.1990494751041149E+01
I    6.4887079034713571E+00    1.1187873675143887E+01    6.6466369155270794E-02
I    1.0274061584764990E+01    2.6842119562246474E+00    7.3173403216182864E+00
I    6.6708023906407883E+00    1.5419671420020080E+01    1.7899745835644609E+01
I    1.4380919304908524E+01    1.6333069044900179E+00    1.8564909650080786E+01
I    1.0779835925446857E+01    6.8398996149767424E+00    6.5916143649695806E+00
I    6.9826841401309165E+00    1.5128962223479601E+01    1.3100361633101720E+01
I    1.0088624884519801E+01    3.0194333054753413E+00    2.4804432876837044E+01
I    1.1156447892525396E+01    6.7989629044563644E+00    2.4720222623093967E+01
I    1.4390050741995333E+01    1.7585539290594854E+00    1.2621604084863291E+01
I    1.0174032617084920E+01    2.5590357289122347E+00    1.9149243143045560E+01
I    7.0800701634364280E+00    1.5089134911710541E+01    5.9561217562723296E+00
I    1.4606723865809453E+01    1.6870218406165711E+00    6.0670010037134903E+00
I    1.1585257200967831E+01    7.2312536682621920E+00    1.9272037590949648E+01
I    6.9632097730791918E+00    1.5527157223332601E+01    7.7377279818682310E-02
I    1.0092778269726631E+01    2.4259983114413362E+00    1.1601996735322000E+01
I    1.1388818298666381E+01    7.2329797097575508E+00    1.2126817120266464E+01
I    1.4561462651682671E+01    1.5048266316070793E+00    4.4939092120178226E-01
I    9.6964473493675545E+00    1.1979401247454183E+01    6.0314966152380158E+00
I    7.1146700828232659E+00    6.0178376966264784E+00    1.8468369446095735E+01
I    1.4606525482438578E+01    1.0333085539195849E+01    1.8191971103744631E+01
I    1.1123573411541940E+01    1.5856995322676005E+01    6.8981615056043122E+00
I    6.6826904559838791E+00    6.0979213207495553E+00    1.2796274220033185E+01
I    1.1025885669519177E+01    1.1160790951888140E+01    2.4572214268974204E+01
I    1.1303565703894039E+01    1.5909442227419694E+01    2.4449261251890892E+01
I    1.4582726844669725E+01    1.0473631947311551E+01    1.2878239871308171E+01
I    1.0637061577394206E+01    1.1375025566574211E+01    1.9327440543318218E+01
I    6.5991970087318421E+00    6.3479885141539292E+00    5.9187679022137090E+00
I    1.4487586470470827E+01    1.0609146123590230E+01    5.6060787387442685E+00
I    1.1104105042130545E+01    1.5710062294183073E+01    1.9423415661454477E+01
I    7.1867676898959516E+00    6.3581810543139099E+00    7.9913299189323017E-01
I    1.0546648357669898E+01    1.1192135690572849E+01    1.2383348978712895E+01
I    1.1114278144631790E+01    1.5775207170057117E+01    1.2230808445444556E+01
I    1.4981876503037066E+01    1.0825878698455547E+01    1.2293546450045509E+00
I    1.6644554348262393E+01    1.7258551230215236E+01    9.4439242146605089E+00
I   -1.5848214970001145E-01   -2.2951376755243091E-01    1.5653820908222349E+01
I    3.7281708439617365E+00    4.5680981437262593E+00    1.5735124923652153E+01
I    4.6064893727475686E+00    4.1064860466742426E+00    9.4145496171732486E+00
I    1.6378604629108384E+01    1.7434987001797936E+01    2.1973868457664601E+01
I    4.9401397759133197E+00    4.2293428836091893E+00    2.2069064696667851E+01
I    3.6514768361589095E-01   -2.6962068659348687E-01    3.0227220583824232E+00
I    3.6978332211339793E+00    4.5485932802509055E+00    3.0834966730814282E+00
I    1.6764071513062817E+01    8.7004373779686865E+00    9.2537206580674383E+00
I    5.4529454092683449E-01    8.4715598675843573E+00    1.5637975109999829E+01
I    3.3744492989429693E+00    1.3565894174535730E+01    1.5564331802756813E+01
I    4.8819709659922470E+00    1.3274682365347239E+01    9.2513090335608279E+00
I    1.7544079090624855E+01    9.3956441325143683E+00    2.1935651233332816E+01
I    5.0439486705301491E+00    1.3520790166928830E+01    2.1657884848893548E+01
I    6.5887972390750527E-01    8.3287012514757439E+00    3.1338818749540973E+00
I    4.1893867040881281E+00    1.3677144450871184E+01    3.0621136703602927E+00
I    7.6211980304434208E+00    1.7340312742840027E+01    9.4438339288130262E+00
I    9.4483492365367940E+00    6.7900037612212624E-02    1.5618043411527401E+01
I    1.2404370914044039E+01    4.3624280356484011E+00    1.5502479106980303E+01
I    1.3422758028674210E+01    4.4541300046605317E+00    9.4675749242302203E+00
I    8.3180500277989484E+00    1.8089700982291049E+01    2.1879428320164866E+01
I    1.3169971006977716E+01    3.9812638867301087E+00    2.1900128581952767E+01
I    9.1811161853886656E+00    2.1427844508009031E-01    3.4246378863111810E+00
I    1.2715099238715155E+01    3.7110003158799887E+00    3.0764737022813908E+00
I    8.1384693496195215E+00    9.1587980737562020E+00    9.3597527141926822E+00
I    9.0890576335314179E+00    8.3527437880394615E+00    1.5547676665952665E+01
I    1.2482280168585364E+01    1.3312274748021023E+01    1.5845415678252522E+01
I    1.3124312381905201E+01    1.3069344849041810E+01    9.4184778887698037E+00
I    8.1252662364689243E+00    9.1737532915373716E+00    2.1610432740150397E+01
I    1.3770112698257934E+01    1.2828105282365058E+01    2.2058921383656394E+01
I    8.9526751016912609E+00    9.1275681158002691E+00    2.9406457272982509E+00
I    1.2447986566335624E+01    1.3772920934795804E+01    3.0540256108063248E+00
     &END COORD
     &VELOCITY
           2.2148546526154518E-05   -1.9405956308873681E-05   -9.3509160135554165E-05
           4.8131840840464317E-05    7.9685388511149742E-06   -4.5830054900756691E-06
           9.2070217450733820E-07    1.9300148391366003E-05   -2.5508228446963302E-06
          -8.0277527667625405E-05   -8.7515885191721983E-05   -1.7989851537112192E-05
           8.2507907990874198E-06   -2.7211625556422818E-05    2.3970756155845230E-05
           2.7106154715783927E-05   -7.0298055627301698E-05   -2.1726595207318330E-05
           7.3181584884085584E-05   -1.4346811274706498E-05    1.0376701762695310E-04
          -3.8641710536513502E-05   -8.4073425159921679E-05   -3.8182416892931302E-06
          -1.4997240198245465E-05   -4.0138143492978514E-05    4.4632258672572297E-05
           8.4160347385569665E-06   -1.1536045718810656E-05   -8.2520997594526208E-05
           2.8399757543216145E-05   -2.9718867038850939E-05    1.3079372554893883E-04
          -8.8911971944027867E-07   -1.6936841712256533E-05    6.9761147345298762E-05
          -7.2845111297317592E-05   -3.3670206160886174E-06    6.0429372569461631E-05
           1.9892398291655735E-05    4.7611179022624497E-06    7.8326828619393514E-05
           3.0178487691384013E-05    8.4683302629727337E-05   -9.2791026386179360E-05
          -1.8251619199534832E-05   -1.3374411329893207E-04   -1.1720539650437704E-05
           4.7644133070765642E-05   -2.0634304952876894E-06   -8.5203974968813014E-07
           2.9763640323583669E-05   -2.0412373707075441E-05   -1.2671012194925035E-05
          -3.3792228623600714E-05   -3.7234941505241557E-05    9.3534386809254172E-06
          -1.7684774321300847E-05   -4.3252192181406956E-05   -3.4898596965476065E-05
          -4.7360807117749846E-05    4.2835351054476002E-05   -5.5311438544745710E-05
           6.9020228847367963E-05   -7.3857425340459218E-05   -1.5189150220510229E-05
          -4.1390990650596171E-05    3.1552114156177355E-05   -8.7754497555069560E-05
          -1.2558238247608268E-04   -3.4832271695640366E-05   -4.8772947027589371E-05
          -1.6887763417607149E-06    4.3030657666386654E-05   -1.0466821076788219E-04
          -3.7192081598263512E-05   -7.2129672940001359E-06    3.3422589904617978E-05
          -1.7714798863018553E-05   -1.7089465153414366E-06    4.5370670265253348E-05
           6.5793623037187460E-05    1.5309091515410265E-06   -1.3099368129029795E-05
           4.9619227271192270E-05   -3.3279218118210272E-05    3.2467620285882207E-05
           4.0666955257471472E-05    3.6917016210247546E-05   -4.8838252615968978E-05
           7.6110413776304760E-07   -6.5675634630613642E-05   -8.6051124395390615E-05
          -6.3929802288310760E-06    3.8153498140933077E-05    5.1661540145501310E-05
           8.0618289024152355E-05    2.3521054896352828E-05    1.0858002457975664E-04
          -7.0514985641651761E-05    3.3726648089630161E-06    1.3445256112180118E-05
          -6.2063686618507878E-05    1.8555642725385656E-04    3.4617398882676574E-05
           6.4376791771597987E-05    7.9189161188988857E-06    1.8420658418188074E-05
           3.4980912578926747E-05   -3.5884555806982840E-05    1.3226552222119292E-04
           1.3643494373062539E-04    1.0917179651683490E-04   -5.8329375252470587E-05
           9.5914513567310383E-06   -1.0279113207586538E-04    5.2083915236525045E-05
          -7.3837316467744539E-05   -1.3533605193728906E-05    1.0024165113892795E-04
          -9.6351424640764076E-06   -5.0965822005939205E-05   -5.9087245716202876E-05
          -3.9914467584630287E-05    1.3154996149773512E-04    1.1170182527033186E-05
          -2.2982544490585141E-05    8.0957230626840614E-05   -7.5730881510781682E-05
          -3.2675818916584922E-05    3.6132818940240273E-05    1.6545909292243356E-05
          -2.0134486281772677E-04    4.8416981442815064E-05   -2.3008202220135176E-05
          -2.7483204612667204E-05   -5.6199942448984117E-05   -2.2876411860155649E-05
          -3.3620833503801596E-05    1.4583529088299891E-05   -9.0114247020057622E-06
           5.2499407966980754E-05   -1.1110885402788757E-05   -1.3710577835382030E-06
          -1.8251664577030030E-05    1.3321882862080387E-05   -4.8670446141409989E-05
          -2.5301961062643778E-05    3.5227267577742888E-05   -2.9947218129415761E-05
           3.2461070748697509E-05   -4.1522765833855038E-05    4.3946344631818901E-05
           2.7374726405457201E-05   -5.9469822046436695E-05   -3.5607177138472930E-05
          -2.3945808237562234E-05    7.6221298644469723E-05   -8.1773904345930252E-06
           9.5231229238276212E-06    6.2551266683234677E-06   -9.0908954316685738E-05
           1.2204035419399442E-05    6.4235793088802744E-05   -6.0265277189487394E-05
          -6.9299250244750623E-05   -8.3660236496420722E-05    1.3480652082521321E-06
           4.2014796873290832E-05    5.8479399763504974E-05   -5.8838884041786656E-05
           3.0148364534794189E-05    2.9639821428982870E-05    3.5270803320723580E-05
           5.4693927447204315E-05    6.4657434214257081E-05    8.4454644051836129E-05
           1.3341984518191818E-05   -6.7764528482104497E-05   -5.4665039294485003E-05
          -3.8932143190513528E-07    3.5458942163729953E-05    4.0992525143939872E-05
           5.0748524051967663E-05    1.3425104212536112E-05    4.1905524885661667E-05
           8.2898961431440406E-06   -9.9423881617545582E-05    3.7444353281274802E-05
          -1.6270720119616625E-05   -4.3914764655222841E-05    4.1391006890242219E-05
           1.0640308168167149E-05    6.3918783714349080E-05   -1.0580776608902432E-04
           5.5861396900937984E-05    3.8737712145219008E-05    5.0653842281100455E-05
          -1.1692720122297933E-04    2.2886509445491527E-05    9.4978809375267543E-05
          -2.5212308210079097E-05    1.6040896360476524E-05    2.4442639865929760E-05
          -4.6169805718347446E-05   -5.0277603651603320E-05    5.6297729396025173E-05
          -8.0234138824343993E-05    9.9044273675289918E-05    1.7115847772905291E-05
           5.4652533414874755E-05   -4.7490146349531222E-05   -1.2363586777079191E-04
           4.8080589877203534E-05   -3.0926610062131998E-05    6.0277244080783260E-05
          -1.0225369121489692E-04    2.4383843516963553E-05    4.4594271447483916E-05
           9.7770944048848813E-05   -6.0011768641126257E-05   -9.2163921871771023E-05
          -4.1271482704248099E-05    9.4789457517761459E-05   -2.0901415357267435E-05
           7.0273532472670512E-05    4.1346290450515066E-05   -4.3920110006460680E-05
          -6.4463107350332585E-05   -5.2045487108556575E-05    4.0109857374835982E-05
          -1.7450508088920310E-05   -1.7783965836395777E-05    1.0928702484812066E-04
          -6.2256982579897636E-05    6.6005284883273576E-05   -7.2042676558124451E-05
          -6.8849226965198119E-05   -3.8464453676721004E-05   -1.7125033355505271E-04
          -2.9414862427386958E-05    7.5533831885413308E-05   -2.7026022050080828E-05
           4.8161887797467888E-05   -4.3758109324590393E-05    9.3914440091484721E-05
          -9.5128401849563433E-05    9.8725179044356138E-05    4.3057220399434751E-05
           1.1523122252357119E-05   -6.6585962542600317E-06   -7.9757658564078950E-07
          -9.9366012894642924E-05    1.3822297888796485E-04    5.7619030145734492E-05
          -2.2669848364179036E-05   -6.5628405895211257E-05    2.5174808448193752E-05
           3.2208541499428211E-05   -2.4258378567618263E-05    2.9780112879088034E-05
          -1.6354811871731233E-05    3.9464288177489047E-05    5.3211403182480013E-05
           4.9488189502129237E-05    8.8807406184725156E-05    2.0398995471779068E-05
           2.2199574293850423E-05   -1.0096208985404941E-04   -7.2403737270396661E-05
           6.2009722646427814E-05    8.5335481923074366E-06   -3.0650524722249659E-05
           1.0260444853456654E-04    2.1019310413578315E-05    1.7415248232022040E-05
          -3.7176735287838074E-05   -2.4464486053954787E-05    5.4182590868825903E-05
          -1.2618049920556807E-05    4.6676047024020980E-05   -6.0589612275082901E-05
           5.5087605948454346E-05    2.1955115950096783E-05   -2.9595725110599247E-05
          -1.6889402223334111E-05    1.1291485804506617E-05    1.2007364493359256E-04
          -8.4769588376527744E-05   -2.9625751670745143E-05    4.5825678138522898E-05
           4.3958932622411341E-05    1.3793751889055458E-04    2.7671986420577442E-05
          -1.4224923819318627E-05    1.3101939984354831E-04   -5.3805281453643361E-05
           4.3706053760870841E-05   -5.5350063564238390E-05    6.5813243598663608E-05
           5.3962858162679708E-05   -6.5465045479542588E-05    9.8518122409940184E-06
          -3.1867896039541391E-05   -6.0813422716643897E-05   -2.4542905188517329E-05
           7.2372252692013924E-05   -4.4307907585401426E-05    3.8100966181736706E-05
          -7.2992291052473228E-05   -4.0141081587082707E-06   -6.1618877026713641E-05
           1.2858739916985798E-05   -8.9519551860996633E-05   -5.9819881028467145E-05
          -1.8115790118840667E-05    5.0415324257906073E-05    1.1544845712840247E-04
          -5.8466432638296044E-05    2.1435023644535484E-06   -4.5153872820502430E-05
          -1.3040501794843475E-07    6.0452172625385764E-05   -9.7943227785464489E-05
          -1.2445163090027881E-05    1.3220088746986955E-04   -9.4417190957759914E-05
           2.2571211224427412E-05   -6.3920897684929156E-05    8.1773551590396288E-05
          -5.8498544829595320E-05   -2.4748305698157913E-05    5.6263609642829640E-08
           6.3295826634314437E-06    7.2267243587822674E-05    5.1322468828621894E-05
          -9.0589915618329538E-05    2.3224441787143398E-05   -5.8288179855774671E-05
           1.4513027197546368E-04    7.5257691678502759E-06   -8.8126756416538702E-05
           7.1456908005623779E-06    1.7460641205840762E-05   -3.1033882323213670E-05
           2.4421990073897686E-05    1.0725930413816497E-04    4.0241975710997542E-05
          -8.3654162371336004E-05    4.1502310297788044E-05   -1.8369108737131546E-05
          -1.0796528194405871E-05    3.2793360733045495E-05   -1.1987204449056379E-04
          -1.0139572145304345E-05   -9.4016169351009089E-05   -4.5299747465249744E-05
          -6.7770287494657485E-05   -6.9507926870303600E-06    4.9825999249778277E-05
           3.1305257325665895E-05    2.2581461935993730E-06   -9.1951663294873766E-05
          -7.4212036682777164E-05    4.2350612686780724E-05    8.9810306584101311E-07
          -3.1637234167319957E-05    2.5733086270193709E-05    8.2491416227952258E-05
           3.8627771702833222E-05    6.0434319823812879E-07   -1.2024109107941432E-05
           1.5044188804337716E-04   -6.9805006293982750E-05    6.3896866507523340E-05
           3.4080256334923691E-05   -5.8348265053286534E-05    6.3104374269957776E-06
           6.2900382901304777E-05   -1.4775510289179821E-05    8.1840632474045670E-06
          -5.3262186311726967E-06    7.3945283832317408E-06   -1.9136534486903254E-05
          -1.4939392475836819E-04   -5.9654597918678539E-05   -5.6449451361628962E-05
           6.3153582924402375E-05   -4.7867419438763440E-05    1.9159934309810905E-05
           2.2832857640136112E-05    6.6202457574109124E-05   -3.1012588028296866E-05
          -1.4456009073155450E-05   -1.6026433664523259E-05    1.0340159870040966E-04
           4.3131780802741599E-05    6.9135336833152293E-05    3.0957030508707060E-05
          -1.4757604676835432E-05    2.5350636243002649E-05    8.3784155838936844E-05
          -4.6891873611740839E-05   -3.8303392509655192E-05    5.8599100491930897E-05
           2.4523083685283182E-05    7.4326431453705912E-05    7.8682415206484201E-05
           5.4094661610723747E-05    6.0640463630822179E-05    1.6309507161685024E-04
           3.5627129029240549E-05   -7.3309537411384045E-07   -2.4540505053128343E-05
           3.5814434818596601E-05   -5.6423214352067236E-05    9.0099859828954922E-05
          -7.9223076979510125E-05   -1.9196182312505506E-04    3.2694351521927983E-05
          -1.7785543801458846E-05    1.2608238064883520E-04    4.2956399359705943E-05
           1.4875534242693924E-04    1.2610663234682018E-05   -1.1956547386417073E-05
          -2.6891566299402198E-06   -3.6301452718476405E-05    4.3393145305535768E-05
           8.6375646080247433E-05   -1.9756755134790695E-05   -6.0138997185601446E-05
           4.0993828773907465E-05    8.2870134231677834E-06    6.8629676552599760E-05
          -6.6027963135716482E-05   -5.3844883031504520E-05   -6.9062541436072962E-05
          -3.8650704359257820E-05   -7.7969947612063194E-06   -4.7167554593549298E-05
           6.8142211937217910E-05    4.7297395774579902E-05   -4.2123420181443814E-05
           2.6495743290114431E-05    1.6561931925792852E-05   -5.2187358330132493E-05
           1.4785830965778331E-04   -2.4606469615142022E-05   -1.7887849700321670E-05